c 181_3_checker.cnf
c
c field = 181
c formula set type = 3_checker
c
p cnf 4 14
362 
364 
366 
-368 
363 
365 
367 
-369 
270 
300 
330 
-240 
271 
301 
331 
-241 
270 
300 
330 
-390 
271 
301 
331 
-391 
300 
330 
390 
-270 
301 
331 
391 
-271 
300 
330 
390 
-420 
301 
331 
391 
-421 
330 
390 
420 
-300 
331 
391 
421 
-301 
276 
304 
332 
-248 
277 
305 
333 
-249 
